n_res = 4;
rc = [ 26, 19, 21, 23 ];
n_tasks = 90;
d = [ 10, 8, 5, 8, 3, 1, 9, 3, 10, 4, 7, 10, 7, 2, 10, 5, 4, 8, 4, 3, 2, 10, 3, 3, 8, 10, 3, 5, 7, 9, 2, 6, 7, 7, 9, 8, 9, 5, 3, 7, 1, 9, 7, 2, 9, 1, 1, 6, 4, 3, 9, 4, 2, 2, 7, 4, 3, 3, 2, 4, 4, 5, 9, 7, 3, 4, 8, 5, 9, 9, 9, 10, 7, 3, 4, 3, 6, 5, 3, 5, 1, 4, 9, 1, 2, 10, 10, 1, 3, 3 ];
rr = [| 7, 8, 8, 3, 9, 10, 3, 7, 1, 7, 10, 2, 5, 10, 5, 4, 7, 10, 10, 1, 7, 9, 8, 7, 1, 2, 3, 4, 7, 10, 3, 7, 7, 10, 2, 7, 7, 8, 3, 9, 1, 7, 1, 7, 9, 3, 5, 10, 1, 9, 6, 1, 5, 7, 9, 3, 9, 9, 10, 1, 9, 2, 8, 3, 7, 10, 2, 4, 6, 2, 10, 8, 1, 5, 1, 4, 4, 3, 9, 3, 9, 6, 9, 7, 10, 6, 9, 9, 3, 2
      | 7, 1, 9, 5, 5, 10, 1, 9, 7, 7, 10, 6, 6, 8, 10, 3, 4, 1, 4, 3, 9, 1, 9, 10, 2, 2, 10, 3, 7, 8, 2, 2, 4, 3, 9, 8, 3, 3, 1, 3, 4, 9, 1, 8, 3, 6, 6, 7, 9, 1, 8, 2, 6, 4, 1, 10, 1, 6, 9, 6, 8, 6, 4, 6, 8, 9, 1, 4, 8, 8, 5, 2, 8, 7, 5, 8, 3, 10, 1, 3, 2, 2, 1, 10, 2, 2, 4, 1, 10, 2
      | 2, 2, 6, 6, 4, 3, 7, 1, 10, 1, 4, 3, 8, 6, 4, 9, 8, 8, 8, 7, 1, 1, 7, 10, 8, 7, 2, 1, 9, 8, 2, 4, 10, 4, 1, 6, 10, 3, 1, 5, 3, 4, 10, 7, 3, 9, 8, 3, 9, 6, 6, 3, 3, 6, 8, 2, 4, 7, 5, 5, 2, 7, 3, 9, 6, 4, 6, 8, 7, 5, 3, 8, 10, 1, 9, 6, 9, 8, 1, 3, 10, 10, 2, 3, 10, 2, 4, 9, 10, 4
      | 9, 5, 5, 9, 1, 10, 10, 9, 4, 10, 8, 9, 4, 10, 3, 6, 9, 7, 8, 6, 10, 1, 6, 1, 10, 6, 2, 9, 3, 3, 8, 4, 1, 6, 3, 1, 5, 5, 5, 7, 9, 1, 9, 1, 1, 5, 5, 4, 4, 6, 3, 1, 2, 9, 7, 1, 3, 4, 10, 10, 8, 9, 7, 9, 9, 6, 1, 6, 8, 6, 6, 8, 1, 4, 5, 9, 6, 1, 2, 1, 4, 7, 8, 7, 2, 10, 8, 1, 9, 3 |];
suc = [ { 4, 7, 14 },
       { 6, 38, 53 },
       { 8, 9, 12 },
       { 5, 13, 21 },
       { 16, 22, 23 },
       { 15, 64, 70 },
       { 10, 11, 19 },
       { 24, 86 },
       { 24 },
       { 12, 41, 49 },
       { 28, 56, 84 },
       { 17, 20, 26 },
       { 44, 45, 46 },
       { 27, 29, 40 },
       { 18, 39, 52 },
       { 32, 43, 47 },
       { 33, 58 },
       { 35 },
       { 88 },
       { 61 },
       { 34 },
       { 62, 67, 74 },
       { 25, 27, 33 },
       { 37 },
       { 51, 58 },
       { 30 },
       { 51 },
       { 37, 43, 51 },
       { 31, 48, 60 },
       { 36 },
       { 50 },
       { 86 },
       { 38, 57, 67 },
       { 37, 69 },
       { 54 },
       { 63, 64 },
       { 42, 72 },
       { 55, 82 },
       { 40, 54 },
       { 48, 60, 61 },
       { 80 },
       { 61 },
       { 44, 63 },
       { 66, 79 },
       { 86 },
       { 63, 76 },
       { 53, 54, 80 },
       { 56, 66, 75 },
       { 60, 65 },
       { 80 },
       { 82 },
       { 83 },
       { 59, 72, 90 },
       { 55, 65 },
       { 56, 84 },
       { 59, 78, 79 },
       { 85 },
       { 78 },
       { 68, 71, 76 },
       { 72 },
       { 67, 68, 75 },
       { 66, 71 },
       { 82 },
       { 73, 84 },
       { 71, 74 },
       { 68, 69 },
       { 77 },
       { 73 },
       { 73, 85, 89 },
       { 74, 78 },
       { 87 },
       { 76 },
       { 81 },
       { 81 },
       { 83 },
       { 83 },
       { 79 },
       { 88 },
       { 81 },
       { 85 },
       { 88 },
       { 87 },
       { 87 },
       { 90 },
       { 90 },
       { 89 },
       { 89 },
       {  },
       {  },
       {  } ];
